n=40;
t=50;
profit=[5 7 2 1 4 10 8 6 3 8 8 5 9 9 1 1 10 1 6 10 8 2 3 3 9 8 3 5 3 10 7 6 1 7 6 7 10 9 9 5];
length=[4 1 2 4 3 1 4 3 1 3 2 5 2 2 5 1 2 4 2 3 5 2 4 1 5 1 5 5 1 5 5 4 5 1 5 5 5 2 4 5];
min_deliver=[4 19 45 19 8 1 26 17 39 3 2 23 37 48 41 46 17 19 17 19 26 35 22 30 44 12 39 16 20 29 10 28 11 5 43 24 45 2 30 6];
max_deliver=[4 20 45 19 13 4 27 21 44 6 6 26 38 50 41 47 18 23 17 19 29 38 24 31 44 17 43 19 20 32 11 30 16 9 48 25 46 2 34 8];
surface=[1 4 5 2 3 2 2 3 1 4 2 3 3 5 3 5 5 3 2 2 4 3 2 5 1 5 5 5 2 3 3 1 5 1 2 2 4 5 3 3];
surface_capacity=22;
